solution status: gap limit reached
objective value:                          39903.47361
y#4                                                 1 	(obj:5700)
y#5                                                 1 	(obj:5700)
y#20                                                1 	(obj:5700)
y#23                                                1 	(obj:5700)
y#35                                                1 	(obj:5700)
y#41                                                1 	(obj:5700)
y#42                                                1 	(obj:5700)
x#1#20                                              1 	(obj:0.02244)
x#2#23                                              1 	(obj:0.02125)
x#3#41                                              1 	(obj:0.01496)
x#4#35                                              1 	(obj:0.06409)
x#5#4                                               1 	(obj:0.00918)
x#6#5                                               1 	(obj:0.04913)
x#7#5                                               1 	(obj:0.08874)
x#8#20                                              1 	(obj:0.02057)
x#9#41                                              1 	(obj:0.0068)
x#10#35                                             1 	(obj:0.10625)
x#11#41                                             1 	(obj:0.00952)
x#12#23                                             1 	(obj:0.01241)
x#13#41                                             1 	(obj:0.03553)
x#14#41                                             1 	(obj:0.02635)
x#15#42                                             1 	(obj:0.03825)
x#16#41                                             1 	(obj:0.02601)
x#17#20                                             1 	(obj:0.02023)
x#18#35                                             1 	(obj:0.03553)
x#19#42                                             1 	(obj:0.03366)
x#20#42                                             1 	(obj:0.02142)
x#21#4                                              1 	(obj:0.02397)
x#22#5                                              1 	(obj:0.02227)
x#23#42                                             1 	(obj:0.14994)
x#24#35                                             1 	(obj:0.04131)
x#25#4                                              1 	(obj:0.03502)
x#26#42                                             1 	(obj:0.12801)
x#27#20                                             1 	(obj:0.03774)
x#28#4                                              1 	(obj:0.05882)
x#29#41                                             1 	(obj:0.02329)
x#30#35                                             1 	(obj:0.04012)
x#31#41                                             1 	(obj:0.05508)
x#32#5                                              1 	(obj:0.03995)
x#33#23                                             1 	(obj:0.0884)
x#34#42                                             1 	(obj:0.01547)
x#35#5                                              1 	(obj:0.04573)
x#36#20                                             1 	(obj:0.04437)
x#37#42                                             1 	(obj:0.02805)
x#38#20                                             1 	(obj:0.05321)
x#39#20                                             1 	(obj:0.05491)
x#40#23                                             1 	(obj:0.09078)
x#41#5                                              1 	(obj:0.07412)
x#42#20                                             1 	(obj:0.04216)
x#43#20                                             1 	(obj:0.03961)
x#44#4                                              1 	(obj:0.05678)
x#45#5                                              1 	(obj:0.03213)
x#46#4                                              1 	(obj:0.01428)
x#47#4                                              1 	(obj:0.05134)
x#48#35                                             1 	(obj:0.02227)
x#49#23                                             1 	(obj:0.05712)
x#50#20                                             1 	(obj:0.04318)
x#51#35                                             1 	(obj:0.03417)
x#52#35                                             1 	(obj:0.01564)
x#53#20                                             1 	(obj:0.01292)
x#54#41                                             1 	(obj:0.03077)
x#55#4                                              1 	(obj:0.06426)
x#56#5                                              1 	(obj:0.07973)
x#57#23                                             1 	(obj:0.04097)
x#58#5                                              1 	(obj:0.02737)
x#59#23                                             1 	(obj:0.09078)
x#60#35                                             1 	(obj:0.03332)
x#61#4                                              1 	(obj:0.0255)
x#62#4                                              1 	(obj:0.04607)
x#63#35                                             1 	(obj:0.03281)
x#64#23                                             1 	(obj:0.06613)
x#65#42                                             1 	(obj:0.05695)
x#66#4                                              1 	(obj:0.0986)
x#67#20                                             1 	(obj:0.01292)
x#68#5                                              1 	(obj:0.05746)
x#69#23                                             1 	(obj:0.14637)
x#70#42                                             1 	(obj:0.03808)
x#71#5                                              1 	(obj:0.02941)
x#72#35                                             1 	(obj:0.0289)
x#73#23                                             1 	(obj:0.051)
x#74#41                                             1 	(obj:0.01751)
x#75#42                                             1 	(obj:0.03247)
x#76#42                                             1 	(obj:0.02686)
x#77#42                                             1 	(obj:0.04947)
x#78#4                                              1 	(obj:0.04216)
x#79#41                                             1 	(obj:0.0051)
x#80#35                                             1 	(obj:0.00816)
